;test regex const word = '(\d{3}\d{2}\)S{0,1}\(\d+(?:[,#]\d+){0,}\)S{0,1}\[\d+(?:[,#]\d+){0,}\])';
(declare-const X String)
(assert (str.in_re X (re.++ (str.to_re "c") (re.++ (str.to_re "o") (re.++ (str.to_re "n") (re.++ (str.to_re "s") (re.++ (str.to_re "t") (re.++ (str.to_re " ") (re.++ (str.to_re "w") (re.++ (str.to_re "o") (re.++ (str.to_re "r") (re.++ (str.to_re "d") (re.++ (str.to_re " ") (re.++ (str.to_re "=") (re.++ (str.to_re " ") (re.++ (str.to_re "\u{27}") (re.++ (re.++ ((_ re.loop 3 3) (re.range "0" "9")) (re.++ ((_ re.loop 2 2) (re.range "0" "9")) (re.++ (str.to_re ")") (re.++ ((_ re.loop 0 1) (str.to_re "S")) (re.++ (str.to_re "(") (re.++ (re.+ (re.range "0" "9")) (re.++ (re.++ (re.* (re.++ (re.union (str.to_re ",") (str.to_re "#")) (re.+ (re.range "0" "9")))) ((_ re.loop 0 0) (re.++ (re.union (str.to_re ",") (str.to_re "#")) (re.+ (re.range "0" "9"))))) (re.++ (str.to_re ")") (re.++ ((_ re.loop 0 1) (str.to_re "S")) (re.++ (str.to_re "[") (re.++ (re.+ (re.range "0" "9")) (re.++ (re.++ (re.* (re.++ (re.union (str.to_re ",") (str.to_re "#")) (re.+ (re.range "0" "9")))) ((_ re.loop 0 0) (re.++ (re.union (str.to_re ",") (str.to_re "#")) (re.+ (re.range "0" "9"))))) (str.to_re "]"))))))))))))) (re.++ (str.to_re "\u{27}") (str.to_re ";")))))))))))))))))))
; sanitize danger characters:  < > ' " \ / &
(assert (not (str.in_re X (re.* (re.union (str.to_re "\u{3c}") (str.to_re "\u{3e}") (str.to_re "\u{27}") (str.to_re "\u{22}") (str.to_re "\u{5c}") (str.to_re "\u{2f}") (str.to_re "\u{26}"))))))
(assert (< 20 (str.len X)))
(check-sat)
(get-model)